(set-logic QF_LIA)
(declare-fun _substvar_32_ () Bool)
(declare-fun v0 () Bool)
(declare-fun v2 () Bool)
(assert (or v2 v0))
(assert (distinct (or _substvar_32_ (or v2 v0)) (or v2 v0)))
(check-sat)
(push 1)
(check-sat)
(check-sat)
(check-sat)
(pop 1)
(check-sat)
